* Source:     Pyomo MPS Writer
* Format:     Free MPS
*
NAME unknown
OBJSENSE
 MIN
ROWS
 N  x257
 E  c_e_x258_
 E  c_e_x259_
 E  c_e_x260_
 E  c_e_x261_
 E  c_e_x262_
 E  c_e_x263_
 E  c_e_x264_
 E  c_e_x265_
COLUMNS
     x1 x257 1
     x2 x257 1
     x2 c_e_x258_ 1
     x3 x257 1
     x3 c_e_x258_ 1
     x3 c_e_x259_ 1
     x4 x257 1
     x4 c_e_x258_ 1
     x4 c_e_x259_ 1
     x4 c_e_x260_ 1
     x5 x257 1
     x5 c_e_x258_ 1
     x5 c_e_x259_ 1
     x5 c_e_x260_ 1
     x5 c_e_x261_ 1
     x6 x257 1
     x6 c_e_x258_ 1
     x6 c_e_x259_ 1
     x6 c_e_x260_ 1
     x6 c_e_x261_ 1
     x6 c_e_x262_ 1
     x7 x257 1
     x7 c_e_x258_ 1
     x7 c_e_x259_ 1
     x7 c_e_x260_ 1
     x7 c_e_x261_ 1
     x7 c_e_x262_ 1
     x7 c_e_x263_ 1
     x8 x257 1
     x8 c_e_x258_ 1
     x8 c_e_x259_ 1
     x8 c_e_x260_ 1
     x8 c_e_x261_ 1
     x8 c_e_x262_ 1
     x8 c_e_x263_ 1
     x8 c_e_x264_ 1
     x9 x257 1
     x9 c_e_x258_ 1
     x9 c_e_x259_ 1
     x9 c_e_x260_ 1
     x9 c_e_x261_ 1
     x9 c_e_x262_ 1
     x9 c_e_x263_ 1
     x9 c_e_x264_ 1
     x9 c_e_x265_ 1
     x10 x257 1
     x10 c_e_x258_ 1
     x10 c_e_x259_ 1
     x10 c_e_x260_ 1
     x10 c_e_x261_ 1
     x10 c_e_x262_ 1
     x10 c_e_x263_ 1
     x10 c_e_x265_ 1
     x11 x257 1
     x11 c_e_x258_ 1
     x11 c_e_x259_ 1
     x11 c_e_x260_ 1
     x11 c_e_x261_ 1
     x11 c_e_x262_ 1
     x11 c_e_x264_ 1
     x12 x257 1
     x12 c_e_x258_ 1
     x12 c_e_x259_ 1
     x12 c_e_x260_ 1
     x12 c_e_x261_ 1
     x12 c_e_x262_ 1
     x12 c_e_x264_ 1
     x12 c_e_x265_ 1
     x13 x257 1
     x13 c_e_x258_ 1
     x13 c_e_x259_ 1
     x13 c_e_x260_ 1
     x13 c_e_x261_ 1
     x13 c_e_x262_ 1
     x13 c_e_x265_ 1
     x14 x257 1
     x14 c_e_x258_ 1
     x14 c_e_x259_ 1
     x14 c_e_x260_ 1
     x14 c_e_x261_ 1
     x14 c_e_x263_ 1
     x15 x257 1
     x15 c_e_x258_ 1
     x15 c_e_x259_ 1
     x15 c_e_x260_ 1
     x15 c_e_x261_ 1
     x15 c_e_x263_ 1
     x15 c_e_x264_ 1
     x16 x257 1
     x16 c_e_x258_ 1
     x16 c_e_x259_ 1
     x16 c_e_x260_ 1
     x16 c_e_x261_ 1
     x16 c_e_x263_ 1
     x16 c_e_x264_ 1
     x16 c_e_x265_ 1
     x17 x257 1
     x17 c_e_x258_ 1
     x17 c_e_x259_ 1
     x17 c_e_x260_ 1
     x17 c_e_x261_ 1
     x17 c_e_x263_ 1
     x17 c_e_x265_ 1
     x18 x257 1
     x18 c_e_x258_ 1
     x18 c_e_x259_ 1
     x18 c_e_x260_ 1
     x18 c_e_x261_ 1
     x18 c_e_x264_ 1
     x19 x257 1
     x19 c_e_x258_ 1
     x19 c_e_x259_ 1
     x19 c_e_x260_ 1
     x19 c_e_x261_ 1
     x19 c_e_x264_ 1
     x19 c_e_x265_ 1
     x20 x257 1
     x20 c_e_x258_ 1
     x20 c_e_x259_ 1
     x20 c_e_x260_ 1
     x20 c_e_x261_ 1
     x20 c_e_x265_ 1
     x21 x257 1
     x21 c_e_x258_ 1
     x21 c_e_x259_ 1
     x21 c_e_x260_ 1
     x21 c_e_x262_ 1
     x22 x257 1
     x22 c_e_x258_ 1
     x22 c_e_x259_ 1
     x22 c_e_x260_ 1
     x22 c_e_x262_ 1
     x22 c_e_x263_ 1
     x23 x257 1
     x23 c_e_x258_ 1
     x23 c_e_x259_ 1
     x23 c_e_x260_ 1
     x23 c_e_x262_ 1
     x23 c_e_x263_ 1
     x23 c_e_x264_ 1
     x24 x257 1
     x24 c_e_x258_ 1
     x24 c_e_x259_ 1
     x24 c_e_x260_ 1
     x24 c_e_x262_ 1
     x24 c_e_x263_ 1
     x24 c_e_x264_ 1
     x24 c_e_x265_ 1
     x25 x257 1
     x25 c_e_x258_ 1
     x25 c_e_x259_ 1
     x25 c_e_x260_ 1
     x25 c_e_x262_ 1
     x25 c_e_x263_ 1
     x25 c_e_x265_ 1
     x26 x257 1
     x26 c_e_x258_ 1
     x26 c_e_x259_ 1
     x26 c_e_x260_ 1
     x26 c_e_x262_ 1
     x26 c_e_x264_ 1
     x27 x257 1
     x27 c_e_x258_ 1
     x27 c_e_x259_ 1
     x27 c_e_x260_ 1
     x27 c_e_x262_ 1
     x27 c_e_x264_ 1
     x27 c_e_x265_ 1
     x28 x257 1
     x28 c_e_x258_ 1
     x28 c_e_x259_ 1
     x28 c_e_x260_ 1
     x28 c_e_x262_ 1
     x28 c_e_x265_ 1
     x29 x257 1
     x29 c_e_x258_ 1
     x29 c_e_x259_ 1
     x29 c_e_x260_ 1
     x29 c_e_x263_ 1
     x30 x257 1
     x30 c_e_x258_ 1
     x30 c_e_x259_ 1
     x30 c_e_x260_ 1
     x30 c_e_x263_ 1
     x30 c_e_x264_ 1
     x31 x257 1
     x31 c_e_x258_ 1
     x31 c_e_x259_ 1
     x31 c_e_x260_ 1
     x31 c_e_x263_ 1
     x31 c_e_x264_ 1
     x31 c_e_x265_ 1
     x32 x257 1
     x32 c_e_x258_ 1
     x32 c_e_x259_ 1
     x32 c_e_x260_ 1
     x32 c_e_x263_ 1
     x32 c_e_x265_ 1
     x33 x257 1
     x33 c_e_x258_ 1
     x33 c_e_x259_ 1
     x33 c_e_x260_ 1
     x33 c_e_x264_ 1
     x34 x257 1
     x34 c_e_x258_ 1
     x34 c_e_x259_ 1
     x34 c_e_x260_ 1
     x34 c_e_x264_ 1
     x34 c_e_x265_ 1
     x35 x257 1
     x35 c_e_x258_ 1
     x35 c_e_x259_ 1
     x35 c_e_x260_ 1
     x35 c_e_x265_ 1
     x36 x257 1
     x36 c_e_x258_ 1
     x36 c_e_x259_ 1
     x36 c_e_x261_ 1
     x37 x257 1
     x37 c_e_x258_ 1
     x37 c_e_x259_ 1
     x37 c_e_x261_ 1
     x37 c_e_x262_ 1
     x38 x257 1
     x38 c_e_x258_ 1
     x38 c_e_x259_ 1
     x38 c_e_x261_ 1
     x38 c_e_x262_ 1
     x38 c_e_x263_ 1
     x39 x257 1
     x39 c_e_x258_ 1
     x39 c_e_x259_ 1
     x39 c_e_x261_ 1
     x39 c_e_x262_ 1
     x39 c_e_x263_ 1
     x39 c_e_x264_ 1
     x40 x257 1
     x40 c_e_x258_ 1
     x40 c_e_x259_ 1
     x40 c_e_x261_ 1
     x40 c_e_x262_ 1
     x40 c_e_x263_ 1
     x40 c_e_x264_ 1
     x40 c_e_x265_ 1
     x41 x257 1
     x41 c_e_x258_ 1
     x41 c_e_x259_ 1
     x41 c_e_x261_ 1
     x41 c_e_x262_ 1
     x41 c_e_x263_ 1
     x41 c_e_x265_ 1
     x42 x257 1
     x42 c_e_x258_ 1
     x42 c_e_x259_ 1
     x42 c_e_x261_ 1
     x42 c_e_x262_ 1
     x42 c_e_x264_ 1
     x43 x257 1
     x43 c_e_x258_ 1
     x43 c_e_x259_ 1
     x43 c_e_x261_ 1
     x43 c_e_x262_ 1
     x43 c_e_x264_ 1
     x43 c_e_x265_ 1
     x44 x257 1
     x44 c_e_x258_ 1
     x44 c_e_x259_ 1
     x44 c_e_x261_ 1
     x44 c_e_x262_ 1
     x44 c_e_x265_ 1
     x45 x257 1
     x45 c_e_x258_ 1
     x45 c_e_x259_ 1
     x45 c_e_x261_ 1
     x45 c_e_x263_ 1
     x46 x257 1
     x46 c_e_x258_ 1
     x46 c_e_x259_ 1
     x46 c_e_x261_ 1
     x46 c_e_x263_ 1
     x46 c_e_x264_ 1
     x47 x257 1
     x47 c_e_x258_ 1
     x47 c_e_x259_ 1
     x47 c_e_x261_ 1
     x47 c_e_x263_ 1
     x47 c_e_x264_ 1
     x47 c_e_x265_ 1
     x48 x257 1
     x48 c_e_x258_ 1
     x48 c_e_x259_ 1
     x48 c_e_x261_ 1
     x48 c_e_x263_ 1
     x48 c_e_x265_ 1
     x49 x257 1
     x49 c_e_x258_ 1
     x49 c_e_x259_ 1
     x49 c_e_x261_ 1
     x49 c_e_x264_ 1
     x50 x257 1
     x50 c_e_x258_ 1
     x50 c_e_x259_ 1
     x50 c_e_x261_ 1
     x50 c_e_x264_ 1
     x50 c_e_x265_ 1
     x51 x257 1
     x51 c_e_x258_ 1
     x51 c_e_x259_ 1
     x51 c_e_x261_ 1
     x51 c_e_x265_ 1
     x52 x257 1
     x52 c_e_x258_ 1
     x52 c_e_x259_ 1
     x52 c_e_x262_ 1
     x53 x257 1
     x53 c_e_x258_ 1
     x53 c_e_x259_ 1
     x53 c_e_x262_ 1
     x53 c_e_x263_ 1
     x54 x257 1
     x54 c_e_x258_ 1
     x54 c_e_x259_ 1
     x54 c_e_x262_ 1
     x54 c_e_x263_ 1
     x54 c_e_x264_ 1
     x55 x257 1
     x55 c_e_x258_ 1
     x55 c_e_x259_ 1
     x55 c_e_x262_ 1
     x55 c_e_x263_ 1
     x55 c_e_x264_ 1
     x55 c_e_x265_ 1
     x56 x257 1
     x56 c_e_x258_ 1
     x56 c_e_x259_ 1
     x56 c_e_x262_ 1
     x56 c_e_x263_ 1
     x56 c_e_x265_ 1
     x57 x257 1
     x57 c_e_x258_ 1
     x57 c_e_x259_ 1
     x57 c_e_x262_ 1
     x57 c_e_x264_ 1
     x58 x257 1
     x58 c_e_x258_ 1
     x58 c_e_x259_ 1
     x58 c_e_x262_ 1
     x58 c_e_x264_ 1
     x58 c_e_x265_ 1
     x59 x257 1
     x59 c_e_x258_ 1
     x59 c_e_x259_ 1
     x59 c_e_x262_ 1
     x59 c_e_x265_ 1
     x60 x257 1
     x60 c_e_x258_ 1
     x60 c_e_x259_ 1
     x60 c_e_x263_ 1
     x61 x257 1
     x61 c_e_x258_ 1
     x61 c_e_x259_ 1
     x61 c_e_x263_ 1
     x61 c_e_x264_ 1
     x62 x257 1
     x62 c_e_x258_ 1
     x62 c_e_x259_ 1
     x62 c_e_x263_ 1
     x62 c_e_x264_ 1
     x62 c_e_x265_ 1
     x63 x257 1
     x63 c_e_x258_ 1
     x63 c_e_x259_ 1
     x63 c_e_x263_ 1
     x63 c_e_x265_ 1
     x64 x257 1
     x64 c_e_x258_ 1
     x64 c_e_x259_ 1
     x64 c_e_x264_ 1
     x65 x257 1
     x65 c_e_x258_ 1
     x65 c_e_x259_ 1
     x65 c_e_x264_ 1
     x65 c_e_x265_ 1
     x66 x257 1
     x66 c_e_x258_ 1
     x66 c_e_x259_ 1
     x66 c_e_x265_ 1
     x67 x257 1
     x67 c_e_x258_ 1
     x67 c_e_x260_ 1
     x68 x257 1
     x68 c_e_x258_ 1
     x68 c_e_x260_ 1
     x68 c_e_x261_ 1
     x69 x257 1
     x69 c_e_x258_ 1
     x69 c_e_x260_ 1
     x69 c_e_x261_ 1
     x69 c_e_x262_ 1
     x70 x257 1
     x70 c_e_x258_ 1
     x70 c_e_x260_ 1
     x70 c_e_x261_ 1
     x70 c_e_x262_ 1
     x70 c_e_x263_ 1
     x71 x257 1
     x71 c_e_x258_ 1
     x71 c_e_x260_ 1
     x71 c_e_x261_ 1
     x71 c_e_x262_ 1
     x71 c_e_x263_ 1
     x71 c_e_x264_ 1
     x72 x257 1
     x72 c_e_x258_ 1
     x72 c_e_x260_ 1
     x72 c_e_x261_ 1
     x72 c_e_x262_ 1
     x72 c_e_x263_ 1
     x72 c_e_x264_ 1
     x72 c_e_x265_ 1
     x73 x257 1
     x73 c_e_x258_ 1
     x73 c_e_x260_ 1
     x73 c_e_x261_ 1
     x73 c_e_x262_ 1
     x73 c_e_x263_ 1
     x73 c_e_x265_ 1
     x74 x257 1
     x74 c_e_x258_ 1
     x74 c_e_x260_ 1
     x74 c_e_x261_ 1
     x74 c_e_x262_ 1
     x74 c_e_x264_ 1
     x75 x257 1
     x75 c_e_x258_ 1
     x75 c_e_x260_ 1
     x75 c_e_x261_ 1
     x75 c_e_x262_ 1
     x75 c_e_x264_ 1
     x75 c_e_x265_ 1
     x76 x257 1
     x76 c_e_x258_ 1
     x76 c_e_x260_ 1
     x76 c_e_x261_ 1
     x76 c_e_x262_ 1
     x76 c_e_x265_ 1
     x77 x257 1
     x77 c_e_x258_ 1
     x77 c_e_x260_ 1
     x77 c_e_x261_ 1
     x77 c_e_x263_ 1
     x78 x257 1
     x78 c_e_x258_ 1
     x78 c_e_x260_ 1
     x78 c_e_x261_ 1
     x78 c_e_x263_ 1
     x78 c_e_x264_ 1
     x79 x257 1
     x79 c_e_x258_ 1
     x79 c_e_x260_ 1
     x79 c_e_x261_ 1
     x79 c_e_x263_ 1
     x79 c_e_x264_ 1
     x79 c_e_x265_ 1
     x80 x257 1
     x80 c_e_x258_ 1
     x80 c_e_x260_ 1
     x80 c_e_x261_ 1
     x80 c_e_x263_ 1
     x80 c_e_x265_ 1
     x81 x257 1
     x81 c_e_x258_ 1
     x81 c_e_x260_ 1
     x81 c_e_x261_ 1
     x81 c_e_x264_ 1
     x82 x257 1
     x82 c_e_x258_ 1
     x82 c_e_x260_ 1
     x82 c_e_x261_ 1
     x82 c_e_x264_ 1
     x82 c_e_x265_ 1
     x83 x257 1
     x83 c_e_x258_ 1
     x83 c_e_x260_ 1
     x83 c_e_x261_ 1
     x83 c_e_x265_ 1
     x84 x257 1
     x84 c_e_x258_ 1
     x84 c_e_x260_ 1
     x84 c_e_x262_ 1
     x85 x257 1
     x85 c_e_x258_ 1
     x85 c_e_x260_ 1
     x85 c_e_x262_ 1
     x85 c_e_x263_ 1
     x86 x257 1
     x86 c_e_x258_ 1
     x86 c_e_x260_ 1
     x86 c_e_x262_ 1
     x86 c_e_x263_ 1
     x86 c_e_x264_ 1
     x87 x257 1
     x87 c_e_x258_ 1
     x87 c_e_x260_ 1
     x87 c_e_x262_ 1
     x87 c_e_x263_ 1
     x87 c_e_x264_ 1
     x87 c_e_x265_ 1
     x88 x257 1
     x88 c_e_x258_ 1
     x88 c_e_x260_ 1
     x88 c_e_x262_ 1
     x88 c_e_x263_ 1
     x88 c_e_x265_ 1
     x89 x257 1
     x89 c_e_x258_ 1
     x89 c_e_x260_ 1
     x89 c_e_x262_ 1
     x89 c_e_x264_ 1
     x90 x257 1
     x90 c_e_x258_ 1
     x90 c_e_x260_ 1
     x90 c_e_x262_ 1
     x90 c_e_x264_ 1
     x90 c_e_x265_ 1
     x91 x257 1
     x91 c_e_x258_ 1
     x91 c_e_x260_ 1
     x91 c_e_x262_ 1
     x91 c_e_x265_ 1
     x92 x257 1
     x92 c_e_x258_ 1
     x92 c_e_x260_ 1
     x92 c_e_x263_ 1
     x93 x257 1
     x93 c_e_x258_ 1
     x93 c_e_x260_ 1
     x93 c_e_x263_ 1
     x93 c_e_x264_ 1
     x94 x257 1
     x94 c_e_x258_ 1
     x94 c_e_x260_ 1
     x94 c_e_x263_ 1
     x94 c_e_x264_ 1
     x94 c_e_x265_ 1
     x95 x257 1
     x95 c_e_x258_ 1
     x95 c_e_x260_ 1
     x95 c_e_x263_ 1
     x95 c_e_x265_ 1
     x96 x257 1
     x96 c_e_x258_ 1
     x96 c_e_x260_ 1
     x96 c_e_x264_ 1
     x97 x257 1
     x97 c_e_x258_ 1
     x97 c_e_x260_ 1
     x97 c_e_x264_ 1
     x97 c_e_x265_ 1
     x98 x257 1
     x98 c_e_x258_ 1
     x98 c_e_x260_ 1
     x98 c_e_x265_ 1
     x99 x257 1
     x99 c_e_x258_ 1
     x99 c_e_x261_ 1
     x100 x257 1
     x100 c_e_x258_ 1
     x100 c_e_x261_ 1
     x100 c_e_x262_ 1
     x101 x257 1
     x101 c_e_x258_ 1
     x101 c_e_x261_ 1
     x101 c_e_x262_ 1
     x101 c_e_x263_ 1
     x102 x257 1
     x102 c_e_x258_ 1
     x102 c_e_x261_ 1
     x102 c_e_x262_ 1
     x102 c_e_x263_ 1
     x102 c_e_x264_ 1
     x103 x257 1
     x103 c_e_x258_ 1
     x103 c_e_x261_ 1
     x103 c_e_x262_ 1
     x103 c_e_x263_ 1
     x103 c_e_x264_ 1
     x103 c_e_x265_ 1
     x104 x257 1
     x104 c_e_x258_ 1
     x104 c_e_x261_ 1
     x104 c_e_x262_ 1
     x104 c_e_x263_ 1
     x104 c_e_x265_ 1
     x105 x257 1
     x105 c_e_x258_ 1
     x105 c_e_x261_ 1
     x105 c_e_x262_ 1
     x105 c_e_x264_ 1
     x106 x257 1
     x106 c_e_x258_ 1
     x106 c_e_x261_ 1
     x106 c_e_x262_ 1
     x106 c_e_x264_ 1
     x106 c_e_x265_ 1
     x107 x257 1
     x107 c_e_x258_ 1
     x107 c_e_x261_ 1
     x107 c_e_x262_ 1
     x107 c_e_x265_ 1
     x108 x257 1
     x108 c_e_x258_ 1
     x108 c_e_x261_ 1
     x108 c_e_x263_ 1
     x109 x257 1
     x109 c_e_x258_ 1
     x109 c_e_x261_ 1
     x109 c_e_x263_ 1
     x109 c_e_x264_ 1
     x110 x257 1
     x110 c_e_x258_ 1
     x110 c_e_x261_ 1
     x110 c_e_x263_ 1
     x110 c_e_x264_ 1
     x110 c_e_x265_ 1
     x111 x257 1
     x111 c_e_x258_ 1
     x111 c_e_x261_ 1
     x111 c_e_x263_ 1
     x111 c_e_x265_ 1
     x112 x257 1
     x112 c_e_x258_ 1
     x112 c_e_x261_ 1
     x112 c_e_x264_ 1
     x113 x257 1
     x113 c_e_x258_ 1
     x113 c_e_x261_ 1
     x113 c_e_x264_ 1
     x113 c_e_x265_ 1
     x114 x257 1
     x114 c_e_x258_ 1
     x114 c_e_x261_ 1
     x114 c_e_x265_ 1
     x115 x257 1
     x115 c_e_x258_ 1
     x115 c_e_x262_ 1
     x116 x257 1
     x116 c_e_x258_ 1
     x116 c_e_x262_ 1
     x116 c_e_x263_ 1
     x117 x257 1
     x117 c_e_x258_ 1
     x117 c_e_x262_ 1
     x117 c_e_x263_ 1
     x117 c_e_x264_ 1
     x118 x257 1
     x118 c_e_x258_ 1
     x118 c_e_x262_ 1
     x118 c_e_x263_ 1
     x118 c_e_x264_ 1
     x118 c_e_x265_ 1
     x119 x257 1
     x119 c_e_x258_ 1
     x119 c_e_x262_ 1
     x119 c_e_x263_ 1
     x119 c_e_x265_ 1
     x120 x257 1
     x120 c_e_x258_ 1
     x120 c_e_x262_ 1
     x120 c_e_x264_ 1
     x121 x257 1
     x121 c_e_x258_ 1
     x121 c_e_x262_ 1
     x121 c_e_x264_ 1
     x121 c_e_x265_ 1
     x122 x257 1
     x122 c_e_x258_ 1
     x122 c_e_x262_ 1
     x122 c_e_x265_ 1
     x123 x257 1
     x123 c_e_x258_ 1
     x123 c_e_x263_ 1
     x124 x257 1
     x124 c_e_x258_ 1
     x124 c_e_x263_ 1
     x124 c_e_x264_ 1
     x125 x257 1
     x125 c_e_x258_ 1
     x125 c_e_x263_ 1
     x125 c_e_x264_ 1
     x125 c_e_x265_ 1
     x126 x257 1
     x126 c_e_x258_ 1
     x126 c_e_x263_ 1
     x126 c_e_x265_ 1
     x127 x257 1
     x127 c_e_x258_ 1
     x127 c_e_x264_ 1
     x128 x257 1
     x128 c_e_x258_ 1
     x128 c_e_x264_ 1
     x128 c_e_x265_ 1
     x129 x257 1
     x129 c_e_x258_ 1
     x129 c_e_x265_ 1
     x130 x257 1
     x130 c_e_x259_ 1
     x131 x257 1
     x131 c_e_x259_ 1
     x131 c_e_x260_ 1
     x132 x257 1
     x132 c_e_x259_ 1
     x132 c_e_x260_ 1
     x132 c_e_x261_ 1
     x133 x257 1
     x133 c_e_x259_ 1
     x133 c_e_x260_ 1
     x133 c_e_x261_ 1
     x133 c_e_x262_ 1
     x134 x257 1
     x134 c_e_x259_ 1
     x134 c_e_x260_ 1
     x134 c_e_x261_ 1
     x134 c_e_x262_ 1
     x134 c_e_x263_ 1
     x135 x257 1
     x135 c_e_x259_ 1
     x135 c_e_x260_ 1
     x135 c_e_x261_ 1
     x135 c_e_x262_ 1
     x135 c_e_x263_ 1
     x135 c_e_x264_ 1
     x136 x257 1
     x136 c_e_x259_ 1
     x136 c_e_x260_ 1
     x136 c_e_x261_ 1
     x136 c_e_x262_ 1
     x136 c_e_x263_ 1
     x136 c_e_x264_ 1
     x136 c_e_x265_ 1
     x137 x257 1
     x137 c_e_x259_ 1
     x137 c_e_x260_ 1
     x137 c_e_x261_ 1
     x137 c_e_x262_ 1
     x137 c_e_x263_ 1
     x137 c_e_x265_ 1
     x138 x257 1
     x138 c_e_x259_ 1
     x138 c_e_x260_ 1
     x138 c_e_x261_ 1
     x138 c_e_x262_ 1
     x138 c_e_x264_ 1
     x139 x257 1
     x139 c_e_x259_ 1
     x139 c_e_x260_ 1
     x139 c_e_x261_ 1
     x139 c_e_x262_ 1
     x139 c_e_x264_ 1
     x139 c_e_x265_ 1
     x140 x257 1
     x140 c_e_x259_ 1
     x140 c_e_x260_ 1
     x140 c_e_x261_ 1
     x140 c_e_x262_ 1
     x140 c_e_x265_ 1
     x141 x257 1
     x141 c_e_x259_ 1
     x141 c_e_x260_ 1
     x141 c_e_x261_ 1
     x141 c_e_x263_ 1
     x142 x257 1
     x142 c_e_x259_ 1
     x142 c_e_x260_ 1
     x142 c_e_x261_ 1
     x142 c_e_x263_ 1
     x142 c_e_x264_ 1
     x143 x257 1
     x143 c_e_x259_ 1
     x143 c_e_x260_ 1
     x143 c_e_x261_ 1
     x143 c_e_x263_ 1
     x143 c_e_x264_ 1
     x143 c_e_x265_ 1
     x144 x257 1
     x144 c_e_x259_ 1
     x144 c_e_x260_ 1
     x144 c_e_x261_ 1
     x144 c_e_x263_ 1
     x144 c_e_x265_ 1
     x145 x257 1
     x145 c_e_x259_ 1
     x145 c_e_x260_ 1
     x145 c_e_x261_ 1
     x145 c_e_x264_ 1
     x146 x257 1
     x146 c_e_x259_ 1
     x146 c_e_x260_ 1
     x146 c_e_x261_ 1
     x146 c_e_x264_ 1
     x146 c_e_x265_ 1
     x147 x257 1
     x147 c_e_x259_ 1
     x147 c_e_x260_ 1
     x147 c_e_x261_ 1
     x147 c_e_x265_ 1
     x148 x257 1
     x148 c_e_x259_ 1
     x148 c_e_x260_ 1
     x148 c_e_x262_ 1
     x149 x257 1
     x149 c_e_x259_ 1
     x149 c_e_x260_ 1
     x149 c_e_x262_ 1
     x149 c_e_x263_ 1
     x150 x257 1
     x150 c_e_x259_ 1
     x150 c_e_x260_ 1
     x150 c_e_x262_ 1
     x150 c_e_x263_ 1
     x150 c_e_x264_ 1
     x151 x257 1
     x151 c_e_x259_ 1
     x151 c_e_x260_ 1
     x151 c_e_x262_ 1
     x151 c_e_x263_ 1
     x151 c_e_x264_ 1
     x151 c_e_x265_ 1
     x152 x257 1
     x152 c_e_x259_ 1
     x152 c_e_x260_ 1
     x152 c_e_x262_ 1
     x152 c_e_x263_ 1
     x152 c_e_x265_ 1
     x153 x257 1
     x153 c_e_x259_ 1
     x153 c_e_x260_ 1
     x153 c_e_x262_ 1
     x153 c_e_x264_ 1
     x154 x257 1
     x154 c_e_x259_ 1
     x154 c_e_x260_ 1
     x154 c_e_x262_ 1
     x154 c_e_x264_ 1
     x154 c_e_x265_ 1
     x155 x257 1
     x155 c_e_x259_ 1
     x155 c_e_x260_ 1
     x155 c_e_x262_ 1
     x155 c_e_x265_ 1
     x156 x257 1
     x156 c_e_x259_ 1
     x156 c_e_x260_ 1
     x156 c_e_x263_ 1
     x157 x257 1
     x157 c_e_x259_ 1
     x157 c_e_x260_ 1
     x157 c_e_x263_ 1
     x157 c_e_x264_ 1
     x158 x257 1
     x158 c_e_x259_ 1
     x158 c_e_x260_ 1
     x158 c_e_x263_ 1
     x158 c_e_x264_ 1
     x158 c_e_x265_ 1
     x159 x257 1
     x159 c_e_x259_ 1
     x159 c_e_x260_ 1
     x159 c_e_x263_ 1
     x159 c_e_x265_ 1
     x160 x257 1
     x160 c_e_x259_ 1
     x160 c_e_x260_ 1
     x160 c_e_x264_ 1
     x161 x257 1
     x161 c_e_x259_ 1
     x161 c_e_x260_ 1
     x161 c_e_x264_ 1
     x161 c_e_x265_ 1
     x162 x257 1
     x162 c_e_x259_ 1
     x162 c_e_x260_ 1
     x162 c_e_x265_ 1
     x163 x257 1
     x163 c_e_x259_ 1
     x163 c_e_x261_ 1
     x164 x257 1
     x164 c_e_x259_ 1
     x164 c_e_x261_ 1
     x164 c_e_x262_ 1
     x165 x257 1
     x165 c_e_x259_ 1
     x165 c_e_x261_ 1
     x165 c_e_x262_ 1
     x165 c_e_x263_ 1
     x166 x257 1
     x166 c_e_x259_ 1
     x166 c_e_x261_ 1
     x166 c_e_x262_ 1
     x166 c_e_x263_ 1
     x166 c_e_x264_ 1
     x167 x257 1
     x167 c_e_x259_ 1
     x167 c_e_x261_ 1
     x167 c_e_x262_ 1
     x167 c_e_x263_ 1
     x167 c_e_x264_ 1
     x167 c_e_x265_ 1
     x168 x257 1
     x168 c_e_x259_ 1
     x168 c_e_x261_ 1
     x168 c_e_x262_ 1
     x168 c_e_x263_ 1
     x168 c_e_x265_ 1
     x169 x257 1
     x169 c_e_x259_ 1
     x169 c_e_x261_ 1
     x169 c_e_x262_ 1
     x169 c_e_x264_ 1
     x170 x257 1
     x170 c_e_x259_ 1
     x170 c_e_x261_ 1
     x170 c_e_x262_ 1
     x170 c_e_x264_ 1
     x170 c_e_x265_ 1
     x171 x257 1
     x171 c_e_x259_ 1
     x171 c_e_x261_ 1
     x171 c_e_x262_ 1
     x171 c_e_x265_ 1
     x172 x257 1
     x172 c_e_x259_ 1
     x172 c_e_x261_ 1
     x172 c_e_x263_ 1
     x173 x257 1
     x173 c_e_x259_ 1
     x173 c_e_x261_ 1
     x173 c_e_x263_ 1
     x173 c_e_x264_ 1
     x174 x257 1
     x174 c_e_x259_ 1
     x174 c_e_x261_ 1
     x174 c_e_x263_ 1
     x174 c_e_x264_ 1
     x174 c_e_x265_ 1
     x175 x257 1
     x175 c_e_x259_ 1
     x175 c_e_x261_ 1
     x175 c_e_x263_ 1
     x175 c_e_x265_ 1
     x176 x257 1
     x176 c_e_x259_ 1
     x176 c_e_x261_ 1
     x176 c_e_x264_ 1
     x177 x257 1
     x177 c_e_x259_ 1
     x177 c_e_x261_ 1
     x177 c_e_x264_ 1
     x177 c_e_x265_ 1
     x178 x257 1
     x178 c_e_x259_ 1
     x178 c_e_x261_ 1
     x178 c_e_x265_ 1
     x179 x257 1
     x179 c_e_x259_ 1
     x179 c_e_x262_ 1
     x180 x257 1
     x180 c_e_x259_ 1
     x180 c_e_x262_ 1
     x180 c_e_x263_ 1
     x181 x257 1
     x181 c_e_x259_ 1
     x181 c_e_x262_ 1
     x181 c_e_x263_ 1
     x181 c_e_x264_ 1
     x182 x257 1
     x182 c_e_x259_ 1
     x182 c_e_x262_ 1
     x182 c_e_x263_ 1
     x182 c_e_x264_ 1
     x182 c_e_x265_ 1
     x183 x257 1
     x183 c_e_x259_ 1
     x183 c_e_x262_ 1
     x183 c_e_x263_ 1
     x183 c_e_x265_ 1
     x184 x257 1
     x184 c_e_x259_ 1
     x184 c_e_x262_ 1
     x184 c_e_x264_ 1
     x185 x257 1
     x185 c_e_x259_ 1
     x185 c_e_x262_ 1
     x185 c_e_x264_ 1
     x185 c_e_x265_ 1
     x186 x257 1
     x186 c_e_x259_ 1
     x186 c_e_x262_ 1
     x186 c_e_x265_ 1
     x187 x257 1
     x187 c_e_x259_ 1
     x187 c_e_x263_ 1
     x188 x257 1
     x188 c_e_x259_ 1
     x188 c_e_x263_ 1
     x188 c_e_x264_ 1
     x189 x257 1
     x189 c_e_x259_ 1
     x189 c_e_x263_ 1
     x189 c_e_x264_ 1
     x189 c_e_x265_ 1
     x190 x257 1
     x190 c_e_x259_ 1
     x190 c_e_x263_ 1
     x190 c_e_x265_ 1
     x191 x257 1
     x191 c_e_x259_ 1
     x191 c_e_x264_ 1
     x192 x257 1
     x192 c_e_x259_ 1
     x192 c_e_x264_ 1
     x192 c_e_x265_ 1
     x193 x257 1
     x193 c_e_x259_ 1
     x193 c_e_x265_ 1
     x194 x257 1
     x194 c_e_x260_ 1
     x195 x257 1
     x195 c_e_x260_ 1
     x195 c_e_x261_ 1
     x196 x257 1
     x196 c_e_x260_ 1
     x196 c_e_x261_ 1
     x196 c_e_x262_ 1
     x197 x257 1
     x197 c_e_x260_ 1
     x197 c_e_x261_ 1
     x197 c_e_x262_ 1
     x197 c_e_x263_ 1
     x198 x257 1
     x198 c_e_x260_ 1
     x198 c_e_x261_ 1
     x198 c_e_x262_ 1
     x198 c_e_x263_ 1
     x198 c_e_x264_ 1
     x199 x257 1
     x199 c_e_x260_ 1
     x199 c_e_x261_ 1
     x199 c_e_x262_ 1
     x199 c_e_x263_ 1
     x199 c_e_x264_ 1
     x199 c_e_x265_ 1
     x200 x257 1
     x200 c_e_x260_ 1
     x200 c_e_x261_ 1
     x200 c_e_x262_ 1
     x200 c_e_x263_ 1
     x200 c_e_x265_ 1
     x201 x257 1
     x201 c_e_x260_ 1
     x201 c_e_x261_ 1
     x201 c_e_x262_ 1
     x201 c_e_x264_ 1
     x202 x257 1
     x202 c_e_x260_ 1
     x202 c_e_x261_ 1
     x202 c_e_x262_ 1
     x202 c_e_x264_ 1
     x202 c_e_x265_ 1
     x203 x257 1
     x203 c_e_x260_ 1
     x203 c_e_x261_ 1
     x203 c_e_x262_ 1
     x203 c_e_x265_ 1
     x204 x257 1
     x204 c_e_x260_ 1
     x204 c_e_x261_ 1
     x204 c_e_x263_ 1
     x205 x257 1
     x205 c_e_x260_ 1
     x205 c_e_x261_ 1
     x205 c_e_x263_ 1
     x205 c_e_x264_ 1
     x206 x257 1
     x206 c_e_x260_ 1
     x206 c_e_x261_ 1
     x206 c_e_x263_ 1
     x206 c_e_x264_ 1
     x206 c_e_x265_ 1
     x207 x257 1
     x207 c_e_x260_ 1
     x207 c_e_x261_ 1
     x207 c_e_x263_ 1
     x207 c_e_x265_ 1
     x208 x257 1
     x208 c_e_x260_ 1
     x208 c_e_x261_ 1
     x208 c_e_x264_ 1
     x209 x257 1
     x209 c_e_x260_ 1
     x209 c_e_x261_ 1
     x209 c_e_x264_ 1
     x209 c_e_x265_ 1
     x210 x257 1
     x210 c_e_x260_ 1
     x210 c_e_x261_ 1
     x210 c_e_x265_ 1
     x211 x257 1
     x211 c_e_x260_ 1
     x211 c_e_x262_ 1
     x212 x257 1
     x212 c_e_x260_ 1
     x212 c_e_x262_ 1
     x212 c_e_x263_ 1
     x213 x257 1
     x213 c_e_x260_ 1
     x213 c_e_x262_ 1
     x213 c_e_x263_ 1
     x213 c_e_x264_ 1
     x214 x257 1
     x214 c_e_x260_ 1
     x214 c_e_x262_ 1
     x214 c_e_x263_ 1
     x214 c_e_x264_ 1
     x214 c_e_x265_ 1
     x215 x257 1
     x215 c_e_x260_ 1
     x215 c_e_x262_ 1
     x215 c_e_x263_ 1
     x215 c_e_x265_ 1
     x216 x257 1
     x216 c_e_x260_ 1
     x216 c_e_x262_ 1
     x216 c_e_x264_ 1
     x217 x257 1
     x217 c_e_x260_ 1
     x217 c_e_x262_ 1
     x217 c_e_x264_ 1
     x217 c_e_x265_ 1
     x218 x257 1
     x218 c_e_x260_ 1
     x218 c_e_x262_ 1
     x218 c_e_x265_ 1
     x219 x257 1
     x219 c_e_x260_ 1
     x219 c_e_x263_ 1
     x220 x257 1
     x220 c_e_x260_ 1
     x220 c_e_x263_ 1
     x220 c_e_x264_ 1
     x221 x257 1
     x221 c_e_x260_ 1
     x221 c_e_x263_ 1
     x221 c_e_x264_ 1
     x221 c_e_x265_ 1
     x222 x257 1
     x222 c_e_x260_ 1
     x222 c_e_x263_ 1
     x222 c_e_x265_ 1
     x223 x257 1
     x223 c_e_x260_ 1
     x223 c_e_x264_ 1
     x224 x257 1
     x224 c_e_x260_ 1
     x224 c_e_x264_ 1
     x224 c_e_x265_ 1
     x225 x257 1
     x225 c_e_x260_ 1
     x225 c_e_x265_ 1
     x226 x257 1
     x226 c_e_x261_ 1
     x227 x257 1
     x227 c_e_x261_ 1
     x227 c_e_x262_ 1
     x228 x257 1
     x228 c_e_x261_ 1
     x228 c_e_x262_ 1
     x228 c_e_x263_ 1
     x229 x257 1
     x229 c_e_x261_ 1
     x229 c_e_x262_ 1
     x229 c_e_x263_ 1
     x229 c_e_x264_ 1
     x230 x257 1
     x230 c_e_x261_ 1
     x230 c_e_x262_ 1
     x230 c_e_x263_ 1
     x230 c_e_x264_ 1
     x230 c_e_x265_ 1
     x231 x257 1
     x231 c_e_x261_ 1
     x231 c_e_x262_ 1
     x231 c_e_x263_ 1
     x231 c_e_x265_ 1
     x232 x257 1
     x232 c_e_x261_ 1
     x232 c_e_x262_ 1
     x232 c_e_x264_ 1
     x233 x257 1
     x233 c_e_x261_ 1
     x233 c_e_x262_ 1
     x233 c_e_x264_ 1
     x233 c_e_x265_ 1
     x234 x257 1
     x234 c_e_x261_ 1
     x234 c_e_x262_ 1
     x234 c_e_x265_ 1
     x235 x257 1
     x235 c_e_x261_ 1
     x235 c_e_x263_ 1
     x236 x257 1
     x236 c_e_x261_ 1
     x236 c_e_x263_ 1
     x236 c_e_x264_ 1
     x237 x257 1
     x237 c_e_x261_ 1
     x237 c_e_x263_ 1
     x237 c_e_x264_ 1
     x237 c_e_x265_ 1
     x238 x257 1
     x238 c_e_x261_ 1
     x238 c_e_x263_ 1
     x238 c_e_x265_ 1
     x239 x257 1
     x239 c_e_x261_ 1
     x239 c_e_x264_ 1
     x240 x257 1
     x240 c_e_x261_ 1
     x240 c_e_x264_ 1
     x240 c_e_x265_ 1
     x241 x257 1
     x241 c_e_x261_ 1
     x241 c_e_x265_ 1
     x242 x257 1
     x242 c_e_x262_ 1
     x243 x257 1
     x243 c_e_x262_ 1
     x243 c_e_x263_ 1
     x244 x257 1
     x244 c_e_x262_ 1
     x244 c_e_x263_ 1
     x244 c_e_x264_ 1
     x245 x257 1
     x245 c_e_x262_ 1
     x245 c_e_x263_ 1
     x245 c_e_x264_ 1
     x245 c_e_x265_ 1
     x246 x257 1
     x246 c_e_x262_ 1
     x246 c_e_x263_ 1
     x246 c_e_x265_ 1
     x247 x257 1
     x247 c_e_x262_ 1
     x247 c_e_x264_ 1
     x248 x257 1
     x248 c_e_x262_ 1
     x248 c_e_x264_ 1
     x248 c_e_x265_ 1
     x249 x257 1
     x249 c_e_x262_ 1
     x249 c_e_x265_ 1
     x250 x257 1
     x250 c_e_x263_ 1
     x251 x257 1
     x251 c_e_x263_ 1
     x251 c_e_x264_ 1
     x252 x257 1
     x252 c_e_x263_ 1
     x252 c_e_x264_ 1
     x252 c_e_x265_ 1
     x253 x257 1
     x253 c_e_x263_ 1
     x253 c_e_x265_ 1
     x254 x257 1
     x254 c_e_x264_ 1
     x255 x257 1
     x255 c_e_x264_ 1
     x255 c_e_x265_ 1
     x256 x257 1
     x256 c_e_x265_ 1
RHS
     RHS c_e_x258_ 1
     RHS c_e_x259_ 1
     RHS c_e_x260_ 1
     RHS c_e_x261_ 1
     RHS c_e_x262_ 1
     RHS c_e_x263_ 1
     RHS c_e_x264_ 1
     RHS c_e_x265_ 1
BOUNDS
 LO BOUND x1 0
 LO BOUND x2 0
 LO BOUND x3 0
 LO BOUND x4 0
 LO BOUND x5 0
 LO BOUND x6 0
 LO BOUND x7 0
 LO BOUND x8 0
 LO BOUND x9 0
 LO BOUND x10 0
 LO BOUND x11 0
 LO BOUND x12 0
 LO BOUND x13 0
 LO BOUND x14 0
 LO BOUND x15 0
 LO BOUND x16 0
 LO BOUND x17 0
 LO BOUND x18 0
 LO BOUND x19 0
 LO BOUND x20 0
 LO BOUND x21 0
 LO BOUND x22 0
 LO BOUND x23 0
 LO BOUND x24 0
 LO BOUND x25 0
 LO BOUND x26 0
 LO BOUND x27 0
 LO BOUND x28 0
 LO BOUND x29 0
 LO BOUND x30 0
 LO BOUND x31 0
 LO BOUND x32 0
 LO BOUND x33 0
 LO BOUND x34 0
 LO BOUND x35 0
 LO BOUND x36 0
 LO BOUND x37 0
 LO BOUND x38 0
 LO BOUND x39 0
 LO BOUND x40 0
 LO BOUND x41 0
 LO BOUND x42 0
 LO BOUND x43 0
 LO BOUND x44 0
 LO BOUND x45 0
 LO BOUND x46 0
 LO BOUND x47 0
 LO BOUND x48 0
 LO BOUND x49 0
 LO BOUND x50 0
 LO BOUND x51 0
 LO BOUND x52 0
 LO BOUND x53 0
 LO BOUND x54 0
 LO BOUND x55 0
 LO BOUND x56 0
 LO BOUND x57 0
 LO BOUND x58 0
 LO BOUND x59 0
 LO BOUND x60 0
 LO BOUND x61 0
 LO BOUND x62 0
 LO BOUND x63 0
 LO BOUND x64 0
 LO BOUND x65 0
 LO BOUND x66 0
 LO BOUND x67 0
 LO BOUND x68 0
 LO BOUND x69 0
 LO BOUND x70 0
 LO BOUND x71 0
 LO BOUND x72 0
 LO BOUND x73 0
 LO BOUND x74 0
 LO BOUND x75 0
 LO BOUND x76 0
 LO BOUND x77 0
 LO BOUND x78 0
 LO BOUND x79 0
 LO BOUND x80 0
 LO BOUND x81 0
 LO BOUND x82 0
 LO BOUND x83 0
 LO BOUND x84 0
 LO BOUND x85 0
 LO BOUND x86 0
 LO BOUND x87 0
 LO BOUND x88 0
 LO BOUND x89 0
 LO BOUND x90 0
 LO BOUND x91 0
 LO BOUND x92 0
 LO BOUND x93 0
 LO BOUND x94 0
 LO BOUND x95 0
 LO BOUND x96 0
 LO BOUND x97 0
 LO BOUND x98 0
 LO BOUND x99 0
 LO BOUND x100 0
 LO BOUND x101 0
 LO BOUND x102 0
 LO BOUND x103 0
 LO BOUND x104 0
 LO BOUND x105 0
 LO BOUND x106 0
 LO BOUND x107 0
 LO BOUND x108 0
 LO BOUND x109 0
 LO BOUND x110 0
 LO BOUND x111 0
 LO BOUND x112 0
 LO BOUND x113 0
 LO BOUND x114 0
 LO BOUND x115 0
 LO BOUND x116 0
 LO BOUND x117 0
 LO BOUND x118 0
 LO BOUND x119 0
 LO BOUND x120 0
 LO BOUND x121 0
 LO BOUND x122 0
 LO BOUND x123 0
 LO BOUND x124 0
 LO BOUND x125 0
 LO BOUND x126 0
 LO BOUND x127 0
 LO BOUND x128 0
 LO BOUND x129 0
 LO BOUND x130 0
 LO BOUND x131 0
 LO BOUND x132 0
 LO BOUND x133 0
 LO BOUND x134 0
 LO BOUND x135 0
 LO BOUND x136 0
 LO BOUND x137 0
 LO BOUND x138 0
 LO BOUND x139 0
 LO BOUND x140 0
 LO BOUND x141 0
 LO BOUND x142 0
 LO BOUND x143 0
 LO BOUND x144 0
 LO BOUND x145 0
 LO BOUND x146 0
 LO BOUND x147 0
 LO BOUND x148 0
 LO BOUND x149 0
 LO BOUND x150 0
 LO BOUND x151 0
 LO BOUND x152 0
 LO BOUND x153 0
 LO BOUND x154 0
 LO BOUND x155 0
 LO BOUND x156 0
 LO BOUND x157 0
 LO BOUND x158 0
 LO BOUND x159 0
 LO BOUND x160 0
 LO BOUND x161 0
 LO BOUND x162 0
 LO BOUND x163 0
 LO BOUND x164 0
 LO BOUND x165 0
 LO BOUND x166 0
 LO BOUND x167 0
 LO BOUND x168 0
 LO BOUND x169 0
 LO BOUND x170 0
 LO BOUND x171 0
 LO BOUND x172 0
 LO BOUND x173 0
 LO BOUND x174 0
 LO BOUND x175 0
 LO BOUND x176 0
 LO BOUND x177 0
 LO BOUND x178 0
 LO BOUND x179 0
 LO BOUND x180 0
 LO BOUND x181 0
 LO BOUND x182 0
 LO BOUND x183 0
 LO BOUND x184 0
 LO BOUND x185 0
 LO BOUND x186 0
 LO BOUND x187 0
 LO BOUND x188 0
 LO BOUND x189 0
 LO BOUND x190 0
 LO BOUND x191 0
 LO BOUND x192 0
 LO BOUND x193 0
 LO BOUND x194 0
 LO BOUND x195 0
 LO BOUND x196 0
 LO BOUND x197 0
 LO BOUND x198 0
 LO BOUND x199 0
 LO BOUND x200 0
 LO BOUND x201 0
 LO BOUND x202 0
 LO BOUND x203 0
 LO BOUND x204 0
 LO BOUND x205 0
 LO BOUND x206 0
 LO BOUND x207 0
 LO BOUND x208 0
 LO BOUND x209 0
 LO BOUND x210 0
 LO BOUND x211 0
 LO BOUND x212 0
 LO BOUND x213 0
 LO BOUND x214 0
 LO BOUND x215 0
 LO BOUND x216 0
 LO BOUND x217 0
 LO BOUND x218 0
 LO BOUND x219 0
 LO BOUND x220 0
 LO BOUND x221 0
 LO BOUND x222 0
 LO BOUND x223 0
 LO BOUND x224 0
 LO BOUND x225 0
 LO BOUND x226 0
 LO BOUND x227 0
 LO BOUND x228 0
 LO BOUND x229 0
 LO BOUND x230 0
 LO BOUND x231 0
 LO BOUND x232 0
 LO BOUND x233 0
 LO BOUND x234 0
 LO BOUND x235 0
 LO BOUND x236 0
 LO BOUND x237 0
 LO BOUND x238 0
 LO BOUND x239 0
 LO BOUND x240 0
 LO BOUND x241 0
 LO BOUND x242 0
 LO BOUND x243 0
 LO BOUND x244 0
 LO BOUND x245 0
 LO BOUND x246 0
 LO BOUND x247 0
 LO BOUND x248 0
 LO BOUND x249 0
 LO BOUND x250 0
 LO BOUND x251 0
 LO BOUND x252 0
 LO BOUND x253 0
 LO BOUND x254 0
 LO BOUND x255 0
 LO BOUND x256 0
ENDATA
